amountOfDepartureSegments = 20;
amountOfReturnSegments = 20;
amountOfLodgings = 80;
departurePricesOptions = 1;
returnPricesOptions = 1;
maxAmountOfDepartureSegments = 2;
maxAmountOfReturnSegmentsOptions = 2;
maxAmountOfFeatures = 56;
maxPrice = 2200;
maxStops = 2;
maxStopsDuration = 300;
maxTotalDuration = 700;
allowAerolines = [1,2,3,4];
allowIntermediaries = true;
timeWindowStartHours = [0];
timeWindowStartMinutes = [0];
timeWindowEndHours = [23];
timeWindowEndMinutes = [59];
minScoreFlights = 40;
minScoreLodging = 45;
beedrooms = 1;
beds = 1;
bathrooms = 1;
isSuperHost = false;
features = [1,2,5];
departureSegmentsId = ["10597-2307010728--32540-0-13949-2307010823","10597-2307010956--32540-1-13949-2307011311","10597-2307010755--32540-1-13949-2307011104","10597-2307011916--32540-0-13949-2307012013",
"10597-2307012204--32540-0-13949-2307012301","10597-2307011255--32540-1-13949-2307011603","10597-2307011820--32540-0-13949-2307011917","10597-2307011548--32540-0-13949-2307011645",
"10597-2307011856--32540-1-13949-2307012205","10597-2307011219--32540-0-13949-2307011316","10597-2307021944--32540-0-13949-2307022041","10597-2307020257--32540-1-13949-2307020602",
"10597-2307020918--32540-0-13949-2307021015","10597-2307020533--32540-0-13949-2307020628","10597-2307022204--32540-0-13949-2307022301","10597-2307022055--32540-0-13949-2307022152",
"10597-2307022019--32540-0-13949-2307022116","10597-2307020728--32540-0-13949-2307020823","10597-2307021849--32540-0-13949-2307021946","10597-2307021721--32540-0-13949-2307021818"];
departureSegmentsDuration = [55,195,189,57,57,188,57,57,189,57,57,185,57,55,57,57,57,55,57,57];
departureSegmentsStops = [0,1,1,0,0,1,0,0,1,0,0,1,0,0,0,0,0,0,0,0];
departureLegsDeparturesHours = [|7,-1|9,12|7,10|19,-1|22,-1|12,15|18,-1|15,-1|18,21|12,-1|19,-1|2,4|9,-1|5,-1|22,-1|
20,-1|20,-1|7,-1|18,-1|17,-1|];
departureLegsDeparturesMinutes = [|28,-1|56,12|55,5|16,-1|4,-1|55,0|20,-1|48,-1|56,2|19,-1|44,-1|57,59|18,-1|33,-1|4,-1|
55,-1|19,-1|28,-1|49,-1|21,-1|];
departureLegsArrivalsHours = [|8,-1|11,13|8,11|20,-1|23,-1|13,16|19,-1|16,-1|20,22|13,-1|20,-1|3,6|10,-1|6,-1|23,-1|
21,-1|21,-1|8,-1|19,-1|18,-1|];
departureLegsArrivalsMinutes = [|23,-1|0,11|59,4|13,-1|1,-1|59,3|17,-1|45,-1|0,5|16,-1|41,-1|59,2|15,-1|28,-1|1,-1|
52,-1|16,-1|23,-1|46,-1|18,-1|];
departureLegsDepartures = [|181,-1|181,181|181,181|
182,-1|182,-1|181,181|
181,-1|181,-1|181,182|
181,-1|183,-1|182,182|
182,-1|182,-1|183,-1|
183,-1|183,-1|182,-1|
182,-1|182,-1|];
departureLegsArrivals = [|181,-1|181,181|181,181|
182,-1|182,-1|181,181|
182,-1|181,-1|182,182|
181,-1|183,-1|182,182|
182,-1|182,-1|183,-1|
183,-1|183,-1|182,-1|
183,-1|182,-1|];
departureLegsDuration = [|55,-1|64,59|64,59|57,-1|57,-1|64,63|57,-1|57,-1|64,63|57,-1|
57,-1|62,63|57,-1|55,-1|57,-1|57,-1|57,-1|55,-1|57,-1|57,-1|];
departureLegsAeroline = [|1,-1|1,1|1,1|1,-1|1,-1|1,1|1,-1|1,-1|1,1|1,-1|
1,-1|1,1|1,-1|1,-1|1,-1|1,-1|1,-1|1,-1|1,-1|1,-1|];
departureSegmentsPrices = [|4617|2900|
2900|2900|
2900|2900|
2900|2900|
2900|4985|
5636|5636|
5336|5336|
5336|5336|
5336|5636|
5636|5636|];
departureSegmentsPricesAgents = [|1|1|1|
1|1|1|
1|1|1|
1|1|1|
1|1|1|
1|1|1|
1|1|];
departureSegmentsPricesCarrier = [|1|1|1|
1|1|1|
1|1|1|
1|1|1|
1|1|1|
1|1|1|
1|1|];
departureSegmentsAgentsScore = [|294|
294|
294|
294|
294|
294|
294|
294|
294|
294|
294|
294|
294|
294|
294|
294|
294|
294|
294|
294|];
returnSegmentsId = ["13949-2307042002--32540-1-10597-2307042316","13949-2307041356--32540-1-10597-2307041709","13949-2307040640--32540-1-10597-2307040947","13949-2307041402--32540-0-10597-2307041508",
"13949-2307040908--32540-0-10597-2307041015","13949-2307040659--32540-1-10597-2307041005","13949-2307041730--32540-0-10597-2307041836","13949-2307040702--32407-1-10597-2307041119",
"13949-2307041032--32540-0-10597-2307041139","13949-2307042159--32540-0-10597-2307042306","13949-2307050713--32540-0-10597-2307050820","13949-2307051349--32540-0-10597-2307051455",
"13949-2307052159--32540-0-10597-2307052306","13949-2307051100--32540-0-10597-2307051206","13949-2307051032--32540-0-10597-2307051139","13949-2307051833--32540-0-10597-2307051939",
"13949-2307050640--32540-1-10597-2307050950","13949-2307052237--32540-0-10597-2307052344","13949-2307052059--32540-1-10597-2307060014","13949-2307050908--32540-0-10597-2307051015"];
returnSegmentsDuration = [194,193,187,66,67,186,66,257,67,67,67,66,67,66,67,66,190,67,195,67];
returnSegmentsStops = [1,1,1,0,0,1,0,1,0,0,0,0,0,0,0,0,1,0,1,0];
returnLegsDeparturesHours = [|20,22|13,16|6,8|14,-1|9,-1|6,9|17,-1|7,9|10,-1|21,-1|7,-1|13,-1|21,-1|11,-1|10,-1|
18,-1|6,8|22,-1|20,23|9,-1|];
returnLegsDeparturesMinutes = [|2,7|56,0|40,38|2,-1|8,-1|59,0|30,-1|2,42|32,-1|59,-1|13,-1|49,-1|59,-1|0,-1|32,-1|
33,-1|40,45|37,-1|59,5|8,-1|];
returnLegsArrivalsHours = [|21,23|14,17|7,9|15,-1|10,-1|7,10|18,-1|8,11|11,-1|23,-1|8,-1|14,-1|23,-1|12,-1|11,-1|
19,-1|7,9|23,-1|21,0|10,-1|];
returnLegsArrivalsMinutes = [|0,16|53,9|38,47|8,-1|15,-1|57,5|36,-1|27,19|39,-1|6,-1|20,-1|55,-1|6,-1|6,-1|39,-1|
39,-1|38,50|44,-1|56,14|15,-1|];
returnLegsDepartures = [|185,185|184,184|184,184|
184,-1|184,-1|184,184|
184,-1|184,184|184,-1|
185,-1|185,-1|185,-1|
186,-1|185,-1|185,-1|
185,-1|185,185|186,-1|
186,186|185,-1|];
returnLegsArrivals = [|185,185|184,184|184,184|
184,-1|184,-1|184,184|
184,-1|184,184|184,-1|
185,-1|185,-1|185,-1|
186,-1|185,-1|185,-1|
186,-1|185,185|186,-1|
186,186|185,-1|];
returnLegsDuration = [|58,69|57,69|58,69|66,-1|67,-1|58,65|66,-1|85,97|67,-1|67,-1|
67,-1|66,-1|67,-1|66,-1|67,-1|66,-1|58,65|67,-1|57,69|67,-1|];
returnLegsAeroline = [|1,1|1,1|1,1|1,-1|1,-1|1,1|1,-1|6,6|1,-1|1,-1|
1,-1|1,-1|1,-1|1,-1|1,-1|1,-1|1,1|1,-1|1,1|1,-1|];
returnSegmentsPrices = [|5348|12346|
10556|5348|
5348|5348|
5348|21370|
5348|5348|
5348|5348|
5348|5348|
5348|5348|
5348|5348|
5348|5348|];
returnSegmentsPricesAgents = [|1|1|1|
1|1|1|
1|6|1|
1|1|1|
1|1|1|
1|1|1|
1|1|];
returnSegmentsPricesCarrier = [|1|1|1|
1|1|1|
1|1|1|
1|1|1|
1|1|1|
1|1|1|
1|1|];
returnSegmentsAgentsScore = [|294|
294|
294|
294|
294|
294|
294|
332|
294|
294|
294|
294|
294|
294|
294|
294|
294|
294|
294|
294|];
lodgingsId = ["629202418534722238","620176079477921006","717424613722848370","789144882351023463","47719232","50180126","604391520247234936","51978429",
"620290747579415898","50912408","34988682","52897874","669482886216446214","41495543","681187789308397148","677065997439756879",
"678356666232164753","592776331399798863","52003389","276929","711800493278042240","29533381","53532889","49748964",
"713799928449079764","52364512","50651999","48601961","43179884","48542536","47535982","53716184",
"686283910865113434","870943699784766516","711045150523240892","43871724","609321049078323458","742162964979097521","611119746729561889","47886009",
"629202418534722238","717424613722848370","604391520247234936","51978429","789144882351023463","50180126","47719232","50912408",
"34988682","47981850","52897874","21355999","41495543","592776331399798863","669482886216446214","677065997439756879",
"711800493278042240","681885907822642203","52003389","839180744463580587","48234969","276929","50651999","49748964",
"679513001870116403","29533381","48601961","53716184","47535982","43179884","870943699784766516","713799928449079764",
"686283910865113434","609321049078323458","43871724","769115762122969159","611119746729561889","742162964979097521","53992620","41342585"];
lodgingsStartDate = [181,181,181,181,181,181,181,181,
181,181,181,181,181,181,181,181,
181,181,181,181,181,181,181,181,
181,181,181,181,181,181,181,181,
181,181,181,181,181,181,181,181,
182,182,182,182,182,182,182,182,
182,182,182,182,182,182,182,182,
182,182,182,182,182,182,182,182,
182,182,182,182,182,182,182,182,
182,182,182,182,182,182,182,182];
lodgingsEndDate = [184,184,184,184,184,184,184,184,
184,184,184,184,184,184,184,184,
184,184,184,184,184,184,184,184,
184,184,184,184,184,184,184,184,
184,184,184,184,184,184,184,184,
185,185,185,185,185,185,185,185,
185,185,185,185,185,185,185,185,
185,185,185,185,185,185,185,185,
185,185,185,185,185,185,185,185,
185,185,185,185,185,185,185,185];
lodgingsPeople = [2,2,3,4,6,2,2,2,2,16,2,4,3,2,2,2,2,3,2,2,2,4,2,3,2,4,3,3,2,4,2,2,2,3,2,3,2,2,2,2,
2,3,2,2,4,2,6,16,2,2,4,4,2,3,3,2,2,2,2,2,5,2,3,3,2,4,3,2,2,2,3,2,2,2,3,2,2,2,1,3];
lodgingsBathrooms = [1,1,2,3,2,1,1,1,1,4,1,1,1,1,1,1,1,1,2,1,1,2,1,1,1,2,1,1,1,1,1,1,1,1,1,1,1,1,1,1,
1,2,1,1,3,1,2,4,1,2,1,1,1,1,1,1,1,1,2,1,2,1,1,1,1,2,1,1,1,1,1,1,1,1,1,1,1,1,1,1];
lodgingsBedrooms = [1,1,1,2,2,1,1,1,1,9,1,0,1,1,1,1,0,1,1,1,1,2,1,1,1,2,1,1,1,1,1,1,1,1,1,1,1,1,1,0,
1,1,1,1,2,1,2,9,1,1,0,1,1,1,1,1,1,1,1,1,1,1,1,1,1,2,1,1,1,1,1,1,1,1,1,1,1,1,1,1];
lodgingsBeds = [1,1,2,2,3,1,1,1,1,12,1,1,2,1,1,1,1,1,1,2,1,3,1,2,2,2,2,2,1,2,1,2,2,1,1,1,1,1,1,1,
1,2,1,1,2,1,3,12,1,2,1,2,1,1,2,1,1,1,1,1,3,2,2,2,1,3,2,2,1,1,1,2,2,1,1,1,1,1,1,1];
lodgingsIsSuperhost = [false,true,false,true,true,true,true,true,true,true,false,false,true,false,true,true,false,true,false,true,
false,true,false,true,false,false,true,false,true,true,true,true,false,false,false,false,false,false,true,false,
false,false,true,true,true,true,true,true,false,true,false,false,false,true,true,true,false,true,false,false,
true,true,true,true,false,true,false,true,true,true,false,false,false,false,false,false,true,false,true,false];
lodgingsRating = [470,485,481,482,493,493,488,487,497,491,487,444,494,441,487,495,474,487,485,474,
500,495,487,491,480,478,472,454,477,492,497,490,487,-1,482,470,483,475,492,427,
470,481,488,487,482,493,493,491,487,484,444,483,441,487,494,495,500,493,485,500,
490,474,472,491,467,495,454,490,497,477,-1,480,487,483,470,484,492,475,494,468];
lodgingsFeatures = [|1,2,4,5,73,137,10,12,77,79,657,146,21,85,663,665,90,91,415,671,35,611,36,37,39,103,40,104,41,42,107,44,45,46,47,-1,-1,-1,-1,-1,-1,-1,-1,-1,-1,-1,-1,-1,-1,-1,-1,-1,-1,-1,-1,-1|
1,4,8,73,522,77,79,21,85,86,23,665,90,91,667,93,94,671,103,40,104,44,46,47,51,55,-1,-1,-1,-1,-1,-1,-1,-1,-1,-1,-1,-1,-1,-1,-1,-1,-1,-1,-1,-1,-1,-1,-1,-1,-1,-1,-1,-1,-1,-1|
1,322,4,5,7,8,72,9,73,77,79,657,21,85,86,87,25,89,90,91,667,93,94,95,671,96,672,33,34,35,100,164,40,104,41,44,45,46,47,51,55,-1,-1,-1,-1,-1,-1,-1,-1,-1,-1,-1,-1,-1,-1,-1|
1,4,5,7,8,9,394,15,657,21,280,25,665,667,30,415,671,672,33,34,35,36,39,40,41,46,47,51,308,53,322,73,77,79,85,90,91,93,94,95,223,96,97,227,100,104,236,625,500,510,-1,-1,-1,-1,-1,-1|
1,2,4,8,9,522,11,12,15,21,280,25,665,667,671,672,33,34,39,40,41,44,45,46,47,51,52,308,185,315,67,73,331,77,79,85,86,89,90,91,93,94,95,96,97,611,100,101,104,625,251,-1,-1,-1,-1,-1|
1,4,8,9,394,522,12,657,146,661,23,663,665,667,30,671,672,33,34,37,39,40,41,44,45,46,47,51,52,57,64,322,67,70,73,77,79,85,86,88,90,91,93,94,95,96,98,611,103,104,232,107,625,251,-1,-1|
1,4,5,7,8,9,522,11,12,663,25,665,671,672,33,34,35,36,37,39,40,45,46,47,51,308,55,57,73,77,79,85,86,87,89,90,91,92,93,94,96,100,101,103,104,232,107,236,510,-1,-1,-1,-1,-1,-1,-1|
1,4,5,8,9,73,12,77,15,79,657,146,21,85,89,665,90,93,94,671,96,672,33,35,227,36,37,39,103,40,104,232,41,44,45,46,47,51,55,510,-1,-1,-1,-1,-1,-1,-1,-1,-1,-1,-1,-1,-1,-1,-1,-1|
1,322,4,5,8,73,394,77,657,21,85,86,87,89,90,91,667,93,30,95,671,96,672,33,34,35,611,37,39,40,232,41,44,45,47,51,55,-1,-1,-1,-1,-1,-1,-1,-1,-1,-1,-1,-1,-1,-1,-1,-1,-1,-1,-1|
1,4,5,7,8,137,10,522,11,139,146,663,280,25,665,415,671,32,672,35,37,39,40,41,42,44,45,46,47,51,179,308,55,57,185,322,73,77,79,85,86,89,90,91,476,93,94,96,100,104,232,236,625,626,251,-1|
64,1,129,2,35,4,100,5,37,39,103,40,41,42,44,77,46,85,89,91,671,-1,-1,-1,-1,-1,-1,-1,-1,-1,-1,-1,-1,-1,-1,-1,-1,-1,-1,-1,-1,-1,-1,-1,-1,-1,-1,-1,-1,-1,-1,-1,-1,-1,-1,-1|
1,322,4,5,8,10,12,77,79,85,86,25,665,91,93,94,415,671,96,672,35,611,36,37,39,103,40,104,41,42,44,236,45,46,47,179,308,57,-1,-1,-1,-1,-1,-1,-1,-1,-1,-1,-1,-1,-1,-1,-1,-1,-1,-1|
1,4,5,7,8,9,137,522,15,657,21,280,665,667,415,671,672,33,35,36,37,39,40,41,44,45,46,47,51,179,52,308,322,73,77,79,85,86,89,90,91,93,94,95,96,97,98,611,100,101,103,232,236,251,-1,-1|
1,322,4,8,9,77,21,85,89,90,91,667,93,94,671,96,33,98,39,40,104,41,44,45,46,47,51,54,57,-1,-1,-1,-1,-1,-1,-1,-1,-1,-1,-1,-1,-1,-1,-1,-1,-1,-1,-1,-1,-1,-1,-1,-1,-1,-1,-1|
1,51,4,52,5,-1,-1,-1,-1,-1,-1,-1,-1,-1,-1,-1,-1,-1,-1,-1,-1,-1,-1,-1,-1,-1,-1,-1,-1,-1,-1,-1,-1,-1,-1,-1,-1,-1,-1,-1,-1,-1,-1,-1,-1,-1,-1,-1,-1,-1,-1,-1,-1,-1,-1,-1|
1,4,8,9,394,522,12,21,661,23,663,665,667,671,672,33,35,36,37,39,40,41,44,45,46,47,308,57,64,322,67,70,73,77,79,85,86,89,90,91,93,94,96,98,611,103,104,232,236,-1,-1,-1,-1,-1,-1,-1|
1,51,4,53,8,45,46,94,47,-1,-1,-1,-1,-1,-1,-1,-1,-1,-1,-1,-1,-1,-1,-1,-1,-1,-1,-1,-1,-1,-1,-1,-1,-1,-1,-1,-1,-1,-1,-1,-1,-1,-1,-1,-1,-1,-1,-1,-1,-1,-1,-1,-1,-1,-1,-1|
1,322,4,5,7,8,9,73,11,12,77,79,85,86,87,280,25,89,665,90,91,93,94,415,671,96,672,33,34,35,36,100,37,101,39,103,40,104,232,41,236,45,46,47,51,55,184,57,-1,-1,-1,-1,-1,-1,-1,-1|
1,322,4,7,8,9,73,522,77,15,21,85,89,90,91,93,95,671,96,672,33,34,98,611,100,103,104,232,41,44,45,46,51,55,57,-1,-1,-1,-1,-1,-1,-1,-1,-1,-1,-1,-1,-1,-1,-1,-1,-1,-1,-1,-1,-1|
1,3,4,6,7,8,9,522,77,14,15,21,85,25,90,91,28,92,93,31,223,96,33,38,39,103,40,104,44,45,46,50,51,308,55,57,-1,-1,-1,-1,-1,-1,-1,-1,-1,-1,-1,-1,-1,-1,-1,-1,-1,-1,-1,-1|
1,4,5,8,9,73,12,77,15,21,85,86,89,91,93,94,96,33,34,40,104,41,44,109,46,47,51,52,117,118,57,125,126,-1,-1,-1,-1,-1,-1,-1,-1,-1,-1,-1,-1,-1,-1,-1,-1,-1,-1,-1,-1,-1,-1,-1|
1,129,4,8,9,137,522,11,12,15,657,21,663,667,415,671,672,33,34,37,40,41,42,44,45,46,47,308,56,57,315,322,67,71,73,77,79,85,86,87,88,89,90,91,93,94,95,96,98,227,611,100,103,104,236,625|
64,1,33,34,35,4,5,39,8,40,41,44,45,46,47,51,21,55,91,93,-1,-1,-1,-1,-1,-1,-1,-1,-1,-1,-1,-1,-1,-1,-1,-1,-1,-1,-1,-1,-1,-1,-1,-1,-1,-1,-1,-1,-1,-1,-1,-1,-1,-1,-1,-1|
1,2,322,4,5,8,73,10,522,77,15,80,81,83,21,85,86,23,663,89,665,90,91,667,93,94,671,96,672,33,98,611,37,39,40,104,107,44,236,46,51,52,308,251,315,-1,-1,-1,-1,-1,-1,-1,-1,-1,-1,-1|
1,4,5,8,137,10,139,12,657,146,663,280,665,667,671,33,34,35,36,39,40,41,44,45,46,47,51,179,308,53,60,322,67,73,77,79,85,86,87,90,91,93,94,96,98,611,100,101,232,236,510,-1,-1,-1,-1,-1|
1,322,67,4,5,71,8,9,73,394,12,77,657,85,87,280,89,90,91,93,94,415,671,96,33,34,98,35,611,37,39,40,232,41,44,236,45,46,47,51,500,53,57,62,-1,-1,-1,-1,-1,-1,-1,-1,-1,-1,-1,-1|
1,322,4,8,9,73,11,77,79,21,85,86,663,89,665,90,91,667,93,94,415,671,96,33,40,104,41,44,46,47,626,308,251,315,-1,-1,-1,-1,-1,-1,-1,-1,-1,-1,-1,-1,-1,-1,-1,-1,-1,-1,-1,-1,-1,-1|
1,322,4,8,73,10,11,331,77,79,21,85,89,90,91,667,93,94,671,96,33,98,35,36,100,39,103,40,104,41,42,44,45,46,47,51,55,57,-1,-1,-1,-1,-1,-1,-1,-1,-1,-1,-1,-1,-1,-1,-1,-1,-1,-1|
1,322,4,5,8,73,10,77,145,21,85,23,663,89,90,91,93,94,671,96,33,34,98,35,100,37,39,103,40,104,44,45,46,51,55,57,-1,-1,-1,-1,-1,-1,-1,-1,-1,-1,-1,-1,-1,-1,-1,-1,-1,-1,-1,-1|
1,4,5,71,8,9,11,12,77,90,91,93,94,32,33,34,35,100,37,40,44,45,46,47,57,-1,-1,-1,-1,-1,-1,-1,-1,-1,-1,-1,-1,-1,-1,-1,-1,-1,-1,-1,-1,-1,-1,-1,-1,-1,-1,-1,-1,-1,-1,-1|
1,35,4,5,37,39,40,9,41,42,45,77,46,47,16,51,55,90,-1,-1,-1,-1,-1,-1,-1,-1,-1,-1,-1,-1,-1,-1,-1,-1,-1,-1,-1,-1,-1,-1,-1,-1,-1,-1,-1,-1,-1,-1,-1,-1,-1,-1,-1,-1,-1,-1|
1,4,7,8,9,522,15,21,23,663,665,667,415,671,672,33,37,39,40,42,44,45,46,47,51,308,53,322,73,77,79,80,81,83,85,86,89,90,91,93,94,95,96,98,611,100,101,103,232,236,251,-1,-1,-1,-1,-1|
64,672,1,33,322,4,100,8,40,73,44,46,47,21,85,87,89,90,91,315,93,94,671,-1,-1,-1,-1,-1,-1,-1,-1,-1,-1,-1,-1,-1,-1,-1,-1,-1,-1,-1,-1,-1,-1,-1,-1,-1,-1,-1,-1,-1,-1,-1,-1,-1|
1,322,4,8,73,394,522,77,79,146,21,85,86,88,90,91,667,92,93,94,415,671,96,672,33,37,40,44,236,45,46,47,308,315,61,510,-1,-1,-1,-1,-1,-1,-1,-1,-1,-1,-1,-1,-1,-1,-1,-1,-1,-1,-1,-1|
1,67,4,73,10,139,77,79,657,210,85,86,663,89,665,90,91,415,671,672,35,100,37,101,39,103,40,104,232,41,42,44,45,46,47,51,55,57,60,61,510,-1,-1,-1,-1,-1,-1,-1,-1,-1,-1,-1,-1,-1,-1,-1|
1,2,4,8,10,522,12,280,665,667,287,671,672,33,35,36,37,39,40,41,42,44,45,46,47,51,179,52,308,56,57,77,79,85,86,87,89,90,91,93,94,95,96,611,100,101,103,104,236,-1,-1,-1,-1,-1,-1,-1|
4,71,73,10,394,139,12,77,79,85,86,663,665,415,671,611,100,37,39,103,40,104,232,41,42,44,236,47,51,53,-1,-1,-1,-1,-1,-1,-1,-1,-1,-1,-1,-1,-1,-1,-1,-1,-1,-1,-1,-1,-1,-1,-1,-1,-1,-1|
1,4,8,73,77,79,657,85,86,665,90,91,667,93,94,287,671,33,35,611,36,100,37,39,40,232,41,42,44,45,46,47,51,53,510,-1,-1,-1,-1,-1,-1,-1,-1,-1,-1,-1,-1,-1,-1,-1,-1,-1,-1,-1,-1,-1|
33,4,100,103,8,40,104,42,44,47,21,86,663,56,57,89,91,61,93,94,671,-1,-1,-1,-1,-1,-1,-1,-1,-1,-1,-1,-1,-1,-1,-1,-1,-1,-1,-1,-1,-1,-1,-1,-1,-1,-1,-1,-1,-1,-1,-1,-1,-1,-1,-1|
32,1,35,4,36,5,37,7,39,40,41,42,44,46,47,51,55,25,57,-1,-1,-1,-1,-1,-1,-1,-1,-1,-1,-1,-1,-1,-1,-1,-1,-1,-1,-1,-1,-1,-1,-1,-1,-1,-1,-1,-1,-1,-1,-1,-1,-1,-1,-1,-1,-1|
1,2,4,5,73,137,10,12,77,79,657,146,21,85,663,665,90,91,415,671,35,611,36,37,39,103,40,104,41,42,107,44,45,46,47,-1,-1,-1,-1,-1,-1,-1,-1,-1,-1,-1,-1,-1,-1,-1,-1,-1,-1,-1,-1,-1|
1,322,4,5,7,8,72,9,73,77,79,657,21,85,86,87,25,89,90,91,667,93,94,95,671,96,672,33,34,35,100,164,40,104,41,44,45,46,47,51,55,-1,-1,-1,-1,-1,-1,-1,-1,-1,-1,-1,-1,-1,-1,-1|
1,4,5,7,8,9,522,11,12,663,25,665,671,672,33,34,35,36,37,39,40,45,46,47,51,308,55,57,73,77,79,85,86,87,89,90,91,92,93,94,96,100,101,103,104,232,107,236,510,-1,-1,-1,-1,-1,-1,-1|
1,4,5,8,9,73,12,77,15,79,657,146,21,85,89,665,90,93,94,671,96,672,33,35,227,36,37,39,103,40,104,232,41,44,45,46,47,51,55,510,-1,-1,-1,-1,-1,-1,-1,-1,-1,-1,-1,-1,-1,-1,-1,-1|
1,4,5,7,8,9,394,15,657,21,280,25,665,667,30,415,671,672,33,34,35,36,39,40,41,46,47,51,308,53,322,73,77,79,85,90,91,93,94,95,223,96,97,227,100,104,236,625,500,510,-1,-1,-1,-1,-1,-1|
1,4,8,9,394,522,12,657,146,661,23,663,665,667,30,671,672,33,34,37,39,40,41,44,45,46,47,51,52,57,64,322,67,70,73,77,79,85,86,88,90,91,93,94,95,96,98,611,103,104,232,107,625,251,-1,-1|
1,2,4,8,9,522,11,12,15,21,280,25,665,667,671,672,33,34,39,40,41,44,45,46,47,51,52,308,185,315,67,73,331,77,79,85,86,89,90,91,93,94,95,96,97,611,100,101,104,625,251,-1,-1,-1,-1,-1|
1,4,5,7,8,137,10,522,11,139,146,663,280,25,665,415,671,32,672,35,37,39,40,41,42,44,45,46,47,51,179,308,55,57,185,322,73,77,79,85,86,89,90,91,476,93,94,96,100,104,232,236,625,626,251,-1|
64,1,129,2,35,4,100,5,37,39,103,40,41,42,44,77,46,85,89,91,671,-1,-1,-1,-1,-1,-1,-1,-1,-1,-1,-1,-1,-1,-1,-1,-1,-1,-1,-1,-1,-1,-1,-1,-1,-1,-1,-1,-1,-1,-1,-1,-1,-1,-1,-1|
1,2,4,5,8,73,77,657,21,85,280,25,89,665,90,91,93,94,415,671,96,672,33,34,35,611,100,37,39,103,40,104,232,41,236,45,46,51,179,308,55,184,57,-1,-1,-1,-1,-1,-1,-1,-1,-1,-1,-1,-1,-1|
1,322,4,5,8,10,12,77,79,85,86,25,665,91,93,94,415,671,96,672,35,611,36,37,39,103,40,104,41,42,44,236,45,46,47,179,308,57,-1,-1,-1,-1,-1,-1,-1,-1,-1,-1,-1,-1,-1,-1,-1,-1,-1,-1|
96,1,33,4,8,40,104,41,10,44,45,77,46,51,21,53,57,89,90,91,93,94,31,-1,-1,-1,-1,-1,-1,-1,-1,-1,-1,-1,-1,-1,-1,-1,-1,-1,-1,-1,-1,-1,-1,-1,-1,-1,-1,-1,-1,-1,-1,-1,-1,-1|
1,322,4,8,9,77,21,85,89,90,91,667,93,94,671,96,33,98,39,40,104,41,44,45,46,47,51,54,57,-1,-1,-1,-1,-1,-1,-1,-1,-1,-1,-1,-1,-1,-1,-1,-1,-1,-1,-1,-1,-1,-1,-1,-1,-1,-1,-1|
1,322,4,5,7,8,9,73,11,12,77,79,85,86,87,280,25,89,665,90,91,93,94,415,671,96,672,33,34,35,36,100,37,101,39,103,40,104,232,41,236,45,46,47,51,55,184,57,-1,-1,-1,-1,-1,-1,-1,-1|
1,4,5,7,8,9,137,522,15,657,21,280,665,667,415,671,672,33,35,36,37,39,40,41,44,45,46,47,51,179,52,308,322,73,77,79,85,86,89,90,91,93,94,95,96,97,98,611,100,101,103,232,236,251,-1,-1|
1,4,8,9,394,522,12,21,661,23,663,665,667,671,672,33,35,36,37,39,40,41,44,45,46,47,308,57,64,322,67,70,73,77,79,85,86,89,90,91,93,94,96,98,611,103,104,232,236,-1,-1,-1,-1,-1,-1,-1|
1,4,5,8,9,73,12,77,15,21,85,86,89,91,93,94,96,33,34,40,104,41,44,109,46,47,51,52,117,118,57,125,126,-1,-1,-1,-1,-1,-1,-1,-1,-1,-1,-1,-1,-1,-1,-1,-1,-1,-1,-1,-1,-1,-1,-1|
1,33,35,227,4,100,5,8,9,47,51,179,53,280,90,94,-1,-1,-1,-1,-1,-1,-1,-1,-1,-1,-1,-1,-1,-1,-1,-1,-1,-1,-1,-1,-1,-1,-1,-1,-1,-1,-1,-1,-1,-1,-1,-1,-1,-1,-1,-1,-1,-1,-1,-1|
1,322,4,7,8,9,73,522,77,15,21,85,89,90,91,93,95,671,96,672,33,34,98,611,100,103,104,232,41,44,45,46,51,55,57,-1,-1,-1,-1,-1,-1,-1,-1,-1,-1,-1,-1,-1,-1,-1,-1,-1,-1,-1,-1,-1|
1,322,4,8,9,73,77,79,85,89,90,91,667,93,94,671,672,33,100,37,39,103,40,104,41,44,45,46,47,308,57,251,315,-1,-1,-1,-1,-1,-1,-1,-1,-1,-1,-1,-1,-1,-1,-1,-1,-1,-1,-1,-1,-1,-1,-1|
1,2,4,5,8,73,77,79,657,21,280,25,89,90,91,93,94,671,96,33,34,35,611,100,37,39,103,40,104,41,44,236,45,46,51,308,55,57,-1,-1,-1,-1,-1,-1,-1,-1,-1,-1,-1,-1,-1,-1,-1,-1,-1,-1|
1,3,4,6,7,8,9,522,77,14,15,21,85,25,90,91,28,92,93,31,223,96,33,38,39,103,40,104,44,45,46,50,51,308,55,57,-1,-1,-1,-1,-1,-1,-1,-1,-1,-1,-1,-1,-1,-1,-1,-1,-1,-1,-1,-1|
1,322,4,8,9,73,11,77,79,21,85,86,663,89,665,90,91,667,93,94,415,671,96,33,40,104,41,44,46,47,626,308,251,315,-1,-1,-1,-1,-1,-1,-1,-1,-1,-1,-1,-1,-1,-1,-1,-1,-1,-1,-1,-1,-1,-1|
1,2,322,4,5,8,73,10,522,77,15,80,81,83,21,85,86,23,663,89,665,90,91,667,93,94,671,96,672,33,98,611,37,39,40,104,107,44,236,46,51,52,308,251,315,-1,-1,-1,-1,-1,-1,-1,-1,-1,-1,-1|
1,2,4,5,73,137,10,12,77,79,657,146,21,85,663,665,90,91,415,671,35,611,36,37,39,103,40,104,41,42,107,44,45,46,47,-1,-1,-1,-1,-1,-1,-1,-1,-1,-1,-1,-1,-1,-1,-1,-1,-1,-1,-1,-1,-1|
1,129,4,8,9,137,522,11,12,15,657,21,663,667,415,671,672,33,34,37,40,41,42,44,45,46,47,308,56,57,315,322,67,71,73,77,79,85,86,87,88,89,90,91,93,94,95,96,98,227,611,100,103,104,236,625|
1,322,4,8,73,10,11,331,77,79,21,85,89,90,91,667,93,94,671,96,33,98,35,36,100,39,103,40,104,41,42,44,45,46,47,51,55,57,-1,-1,-1,-1,-1,-1,-1,-1,-1,-1,-1,-1,-1,-1,-1,-1,-1,-1|
1,4,7,8,9,522,15,21,23,663,665,667,415,671,672,33,37,39,40,42,44,45,46,47,51,308,53,322,73,77,79,80,81,83,85,86,89,90,91,93,94,95,96,98,611,100,101,103,232,236,251,-1,-1,-1,-1,-1|
1,35,4,5,37,39,40,9,41,42,45,77,46,47,16,51,55,90,-1,-1,-1,-1,-1,-1,-1,-1,-1,-1,-1,-1,-1,-1,-1,-1,-1,-1,-1,-1,-1,-1,-1,-1,-1,-1,-1,-1,-1,-1,-1,-1,-1,-1,-1,-1,-1,-1|
1,322,4,5,8,73,10,77,145,21,85,23,663,89,90,91,93,94,671,96,33,34,98,35,100,37,39,103,40,104,44,45,46,51,55,57,-1,-1,-1,-1,-1,-1,-1,-1,-1,-1,-1,-1,-1,-1,-1,-1,-1,-1,-1,-1|
1,322,4,8,73,394,522,77,79,146,21,85,86,88,90,91,667,92,93,94,415,671,96,672,33,37,40,44,236,45,46,47,308,315,61,510,-1,-1,-1,-1,-1,-1,-1,-1,-1,-1,-1,-1,-1,-1,-1,-1,-1,-1,-1,-1|
1,4,5,8,137,10,139,12,657,146,663,280,665,667,671,33,34,35,36,39,40,41,44,45,46,47,51,179,308,53,60,322,67,73,77,79,85,86,87,90,91,93,94,96,98,611,100,101,232,236,510,-1,-1,-1,-1,-1|
64,672,1,33,322,4,100,8,40,73,44,46,47,21,85,87,89,90,91,315,93,94,671,-1,-1,-1,-1,-1,-1,-1,-1,-1,-1,-1,-1,-1,-1,-1,-1,-1,-1,-1,-1,-1,-1,-1,-1,-1,-1,-1,-1,-1,-1,-1,-1,-1|
4,71,73,10,394,139,12,77,79,85,86,663,665,415,671,611,100,37,39,103,40,104,232,41,42,44,236,47,51,53,-1,-1,-1,-1,-1,-1,-1,-1,-1,-1,-1,-1,-1,-1,-1,-1,-1,-1,-1,-1,-1,-1,-1,-1,-1,-1|
1,2,4,8,10,522,12,280,665,667,287,671,672,33,35,36,37,39,40,41,42,44,45,46,47,51,179,52,308,56,57,77,79,85,86,87,89,90,91,93,94,95,96,611,100,101,103,104,236,-1,-1,-1,-1,-1,-1,-1|
1,129,4,8,9,394,11,15,145,146,23,663,280,25,665,667,415,671,32,672,33,35,37,39,40,41,44,45,46,47,179,308,57,185,322,73,77,79,86,87,89,90,91,93,94,96,227,100,101,103,104,107,236,371,510,-1|
33,4,100,103,8,40,104,42,44,47,21,86,663,56,57,89,91,61,93,94,671,-1,-1,-1,-1,-1,-1,-1,-1,-1,-1,-1,-1,-1,-1,-1,-1,-1,-1,-1,-1,-1,-1,-1,-1,-1,-1,-1,-1,-1,-1,-1,-1,-1,-1,-1|
1,4,8,73,77,79,657,85,86,665,90,91,667,93,94,287,671,33,35,611,36,100,37,39,40,232,41,42,44,45,46,47,51,53,510,-1,-1,-1,-1,-1,-1,-1,-1,-1,-1,-1,-1,-1,-1,-1,-1,-1,-1,-1,-1,-1|
1,129,4,8,10,77,85,663,89,665,90,93,94,671,96,672,33,103,40,104,41,236,45,46,47,308,57,315,-1,-1,-1,-1,-1,-1,-1,-1,-1,-1,-1,-1,-1,-1,-1,-1,-1,-1,-1,-1,-1,-1,-1,-1,-1,-1,-1,-1|
1,4,8,9,77,25,89,90,91,93,94,95,96,33,35,36,100,39,40,44,45,46,47,51,55,57,-1,-1,-1,-1,-1,-1,-1,-1,-1,-1,-1,-1,-1,-1,-1,-1,-1,-1,-1,-1,-1,-1,-1,-1,-1,-1,-1,-1,-1,-1|];
lodgingsCancelPolicy = [2,5,2,5,3,1,2,2,2,5,1,1,3,1,2,1,2,2,1,3,2,1,2,1,2,3,2,5,2,2,2,5,5,1,2,2,2,2,1,1,
2,2,2,2,5,1,3,5,1,1,1,1,1,2,3,1,2,1,1,1,1,3,2,1,2,1,5,5,2,2,1,2,5,2,2,2,1,2,2,1];
lodgingsPriceTotalAmount = [17800,11000,54600,66000,87600,19300,18900,24700,
23400,400000,22000,21100,32700,16800,14400,16400,
10500,18900,31500,28700,27400,25700,17900,13300,
15700,47300,13000,15500,15100,28200,24900,27900,
20400,12400,11600,15700,11200,7800,4900,12500,
16100,51300,16000,23000,64100,19300,87600,300000,
20400,26200,21100,8300,16800,16000,32100,16400,
27400,20900,31500,9600,29100,28400,12600,13300,
24300,25700,15500,27900,24900,15200,12400,15700,
20400,10700,15700,13100,4900,7800,6400,12800];
